Running for instance ./models/r105.txt
Generating routes...
Atingindo numero maximo de execucoes. abrindo alpha
Atingindo numero maximo de execucoes. abrindo alpha
Maximo de execucoes sem resultados atingido. 488 rotas geradas
Execution time:  18.535462  seconds
Academic license - for non-commercial use only
Warning: constraint name "Cliente esta na rota x1" has a space
Optimize a model with 26 rows, 488 columns and 1822 nonzeros
Variable types: 0 continuous, 488 integer (0 binary)
Coefficient statistics:
  Matrix range     [1e+00, 1e+00]
  Objective range  [2e+01, 1e+02]
  Bounds range     [1e+00, 1e+00]
  RHS range        [1e+00, 2e+01]
Found heuristic solution: objective 926.3486358
Presolve removed 1 rows and 0 columns
Presolve time: 0.00s
Presolved: 25 rows, 488 columns, 1334 nonzeros
Variable types: 0 continuous, 488 integer (488 binary)

Root relaxation: objective 6.814418e+02, 53 iterations, 0.00 seconds

    Nodes    |    Current Node    |     Objective Bounds      |     Work
 Expl Unexpl |  Obj  Depth IntInf | Incumbent    BestBd   Gap | It/Node Time

*    0     0               0     681.4418059  681.44181  0.00%     -    0s

Explored 0 nodes (53 simplex iterations) in 0.01 seconds
Thread count was 8 (of 8 available processors)

Solution count 2: 681.442 926.349 

Optimal solution found (tolerance 1.00e-04)
Best objective 6.814418059335e+02, best bound 6.814418059335e+02, gap 0.0000%

Routes:
19
5 18
7 8 17
11 10
12 9 20 1
2 21 3 24
15 13
14 16 6
23 22 4 25

Distance: 681.441805934
Execution time:  18.583381  seconds
